!HF def2-TZVP opt NumFreq
* XYZ 0 1
N 0.000000 0.000000 -1.187431
N 0.000000 0.000000 -0.074171
O 0.000000 0.000000 1.103902
*
